0 109767
1 110089
2 110374
3 110663
4 110871
5 111057
6 111195
7 111326
8 111448
9 111560
10 111647
11 111739
12 111829
13 111925
14 112008
15 112122
16 112154
17 112200
18 112279
19 112299
20 112363
